VALUE 2500599
1 222
3 218
3 5
8 16
11 212
1 12
14 190
16 193
11 17
17 19
25 177
28 176
32 173
33 167
32 34
34 36
38 125
40 154
42 158
38 46
47 49
48 158
49 50
48 50
54 117
58 107
60 102
62 107
66 95
60 68
72 89
66 74
72 78
81 173
74 89
68 95
62 102
107 116
116 128
117 136
40 125
128 136
136 138
49 138
154 155
155 166
158 160
33 160
36 166
34 167
173 201
176 178
176 177
178 179
179 181
181 183
183 190
19 190
14 193
201 203
203 206
206 209
11 209
212 214
12 214
1 218
3 223
5 224
8 225
12 226
14 227
17 228
19 229
25 230
28 231
32 232
34 233
36 234
40 235
42 236
46 237
47 238
49 239
54 240
58 241
62 242
68 243
74 244
78 245
81 246

